(set-logic QF_S)
(declare-fun V29 () String )
(declare-fun V25 () String )
(declare-fun V12 () String )
(declare-fun V5 () String )
(declare-fun V0 () String )
(declare-fun V22 () String )
(declare-fun V9 () String )
(declare-fun V35 () String )
(declare-fun V36 () String )
(declare-fun V21 () String )
(declare-fun V24 () String )
(declare-fun V19 () String )
(declare-fun V8 () String )
(declare-fun V13 () String )
(declare-fun V15 () String )
(declare-fun V34 () String )
(declare-fun V33 () String )
(declare-fun V1 () String )
(declare-fun V17 () String )
(declare-fun V18 () String )
(declare-fun V41 () String )
(declare-fun V6 () String )
(declare-fun V4 () String )
(declare-fun V27 () String )
(declare-fun V30 () String )
(declare-fun V2 () String )
(declare-fun V10 () String )
(declare-fun V16 () String )
(declare-fun V28 () String )
(declare-fun V7 () String )
(declare-fun V14 () String )
(declare-fun V11 () String )
(declare-fun V3 () String )
(declare-fun V42 () String )
(declare-fun V23 () String )
(declare-fun V32 () String )
(declare-fun V31 () String )
(declare-fun V26 () String )
(declare-fun V20 () String )
(assert (= "" "N" ) )
(assert (= "" "U" ) )
(assert (= "" V28 ) )
(assert (= "" V25 ) )
(assert (= "=" V10 ) )
(assert (= "N" V0 ) )
(assert (= "U" V5 ) )
(assert (= V28 V36 ) )
(assert (= V9 (str.++ (str.++ V20 "U" ) V21 ) ) )
(assert (= V9 (str.++ (str.++ V14 V15 ) V16 ) ) )
(assert (= V9 (str.++ (str.++ V6 V7 ) V8 ) ) )
(assert (= V35 (str.++ (str.++ V33 "u" ) V34 ) ) )
(assert (= V7 (str.++ (str.++ V33 "U" ) V34 ) ) )
(assert (= V24 V17 ) )
(assert (= V26 V19 ) )
(assert (= V3 V13 ) )
(assert (= V25 V18 ) )
(assert (= V30 (str.++ "n" V2 ) ) )
(assert (= V30 (str.++ (str.++ V41 "n" ) V42 ) ) )
(assert (= V2 (str.++ (str.++ V41 "N" ) V42 ) ) )
(assert (= V4 (str.++ (str.++ V24 V25 ) V26 ) ) )
(assert (= V4 (str.++ (str.++ V17 V18 ) V19 ) ) )
(assert (= V4 (str.++ (str.++ V22 "N" ) V23 ) ) )
(assert (= V4 (str.++ (str.++ V11 V12 ) V13 ) ) )
(assert (= V4 (str.++ (str.++ V1 V2 ) V3 ) ) )
(assert (= (str.++ V25 V26 ) (str.++ V18 V19 ) ) )
(assert (= (str.++ V30 V12 ) (str.++ (str.++ V31 V9 ) V32 ) ) )
(assert (= (str.++ V30 V12 ) (str.++ (str.++ V27 V28 ) V29 ) ) )
( check-sat )
